000 000 000 000 000 000 000 000 000 000 000 000 000 000 001 001 001 002 002 001 001 001 001 001 002 002 003 002 002 -99 011
000 000 000 000 000 000 001 000 000 000 000 000 000 001 001 002 004 002 002 002 001 001 001 001 002 002 003 003 002 -99 015
000 000 000 000 000 000 000 000 000 000 000 000 000 000 001 002 002 002 002 001 001 001 001 001 002 002 003 002 002 -99 -99
000 000 000 000 000 000 000 000 000 000 000 000 000 001 002 002 003 002 002 001 000 001 001 001 002 002 003 003 002 -99 -99
000 000 000 000 000 000 000 000 000 000 000 000 000 001 001 003 002 001 002 002 001 001 001 001 002 002 003 003 -99 -99 -99
000 000 000 000 000 000 000 000 000 001 000 000 000 001 001 002 002 001 001 002 001 001 001 001 001 -99 -99 -99 -99 -99 001
000 000 000 000 000 000 000 000 000 000 000 000 001 000 001 001 002 001 002 003 001 001 001 001 001 -99 -99 -99 -99 -99 -99
000 000 000 000 000 000 000 000 000 000 000 001 000 000 001 001 001 001 002 003 002 001 001 002 001 -99 -99 -99 005 005 005
000 000 000 000 000 000 001 000 000 000 000 001 000 000 001 001 001 001 002 003 002 003 002 001 001 002 002 002 005 005 005
000 000 000 000 000 000 000 000 000 001 001 000 000 000 001 001 002 002 002 003 002 001 002 002 001 002 002 004 005 005 007
000 000 000 000 000 000 000 000 000 000 000 000 000 000 000 000 001 001 002 003 002 002 002 004 004 003 002 005 005 005 009
000 000 000 000 000 000 000 000 000 000 000 000 000 000 000 000 001 002 002 002 002 002 003 004 006 006 005 004 006 006 010
000 000 000 000 000 000 000 000 000 000 000 000 000 000 000 000 001 001 002 003 002 005 004 005 007 009 006 006 008 010 009
000 000 000 000 000 000 000 000 000 000 000 000 000 000 000 000 001 001 002 004 006 010 006 007 006 009 006 004 008 008 007
000 000 000 000 000 000 000 000 000 000 000 000 000 000 000 000 000 001 002 005 004 006 006 007 006 007 006 007 006 008 006
000 000 000 000 000 000 000 000 000 000 000 000 000 000 000 000 000 001 002 004 005 006 006 006 005 005 005 007 005 006 005
000 000 000 000 000 000 000 000 000 000 -99 -99 000 000 000 000 000 001 003 003 003 006 006 005 003 005 004 005 005 004 005
000 000 000 000 000 000 000 000 000 000 -99 -99 -99 000 000 000 000 002 002 003 003 003 006 006 005 006 006 005 004 004 004
000 000 000 000 000 000 000 000 000 000 -99 -99 -99 000 000 000 000 002 002 003 003 003 004 005 005 005 003 003 003 002 002
000 000 000 000 -99 -99 000 000 000 000 000 000 000 000 000 000 000 001 001 001 001 002 003 -99 -99 004 003 002 -99 001 002
000 000 000 000 000 -99 -99 000 000 000 000 000 000 000 000 000 000 000 000 000 001 001 001 -99 -99 -99 002 -99 -99 -99 -99
000 000 000 000 000 000 000 000 000 000 000 000 000 000 000 000 000 000 000 000 000 000 001 -99 -99 -99 -99 -99 -99 -99 -99
000 000 000 000 000 000 000 000 000 000 000 000 000 000 000 000 000 000 000 000 000 000 001 -99 -99 -99 -99 -99 -99 -99 -99
000 000 000 000 000 000 000 000 000 000 000 000 000 000 000 000 000 000 000 000 000 000 000 -99 -99 -99 -99 -99 -99 -99 -99
000 000 000 000 000 000 000 000 000 000 000 000 000 000 000 000 000 000 000 000 000 000 000 -99 -99 -99 -99 -99 -99 -99 000
000 000 000 000 000 000 000 000 000 000 000 000 000 000 000 000 000 000 000 000 000 000 001 -99 -99 -99 -99 -99 -99 000 000
000 000 000 000 000 000 000 000 000 000 000 000 000 -99 -99 -99 -99 -99 000 000 000 000 001 -99 -99 -99 -99 -99 -99 000 001
000 000 000 000 000 000 -99 000 000 000 000 000 000 -99 -99 -99 -99 -99 000 000 000 001 001 -99 -99 -99 -99 -99 -99 001 001
000 000 000 000 000 000 -99 000 000 000 000 000 -99 -99 -99 -99 -99 -99 000 000 000 002 -99 001 -99 -99 -99 -99 -99 001 001
000 000 000 000 000 000 -99 -99 -99 000 000 000 000 -99 -99 -99 -99 -99 000 000 000 001 -99 001 -99 -99 -99 -99 -99 -99 -99
000 000 000 000 -99 -99 -99 -99 000 000 000 000 000 -99 -99 -99 -99 -99 000 000 000 000 000 001 000 -99 -99 -99 -99 -99 -99
000 000 000 000 000 -99 -99 -99 000 000 000 000 000 000 -99 -99 -99 -99 000 000 000 -99 000 000 000 -99 -99 -99 -99 -99 -99
000 000 000 000 000 -99 -99 000 000 000 000 000 000 000 -99 -99 -99 -99 -99 000 -99 000 000 000 000 -99 -99 000 000 -99 000
000 000 000 000 -99 -99 000 000 000 000 000 000 000 000 -99 -99 -99 -99 -99 000 -99 000 000 000 000 000 -99 000 000 000 000
000 000 000 000 000 000 000 000 000 000 000 000 000 000 000 -99 -99 -99 -99 -99 000 000 000 000 000 000 000 000 000 000 000
000 000 000 000 000 000 000 000 000 000 000 000 000 000 000 000 -99 -99 -99 -99 000 000 000 -99 000 000 000 000 000 000 000
000 000 000 000 000 000 000 000 000 000 000 000 000 000 000 000 000 -99 -99 000 000 000 000 -99 000 000 -99 000 000 000 000
000 000 000 000 000 000 000 000 000 000 -99 000 000 000 000 000 000 -99 000 000 000 000 000 000 000 000 000 000 000 000 000
000 000 000 000 000 000 000 000 000 000 -99 000 000 000 000 000 000 000 000 000 000 000 000 000 000 000 000 000 000 000 000
000 000 000 000 000 000 000 000 000 -99 -99 000 000 000 000 000 000 000 000 000 000 -99 000 000 -99 000 000 000 000 -99 -99
000 000 000 000 000 000 000 000 -99 000 000 000 000 000 000 000 000 000 000 000 000 -99 000 000 000 000 000 000 000 -99 -99
000 000 000 000 000 000 000 -99 -99 000 000 000 000 000 000 000 000 000 000 000 000 -99 000 000 000 -99 -99 000 000 -99 -99
000 -99 -99 000 000 000 -99 -99 -99 000 000 000 000 000 000 000 000 000 000 000 -99 000 000 000 000 000 -99 000 000 -99 -99
000 -99 -99 -99 -99 000 -99 -99 000 000 000 000 000 000 000 000 000 000 000 000 000 000 000 000 000 000 -99 000 000 -99 000
000 000 -99 -99 000 000 000 -99 000 000 000 000 000 000 000 000 000 000 000 000 000 000 000 000 000 000 000 000 000 -99 -99
000 -99 -99 -99 -99 000 -99 -99 000 000 000 000 000 000 000 000 000 000 000 000 -99 -99 000 000 000 -99 000 000 -99 -99 -99
000 -99 -99 -99 -99 -99 -99 -99 -99 000 000 000 000 000 000 -99 -99 000 000 000 000 000 000 000 000 000 000 -99 -99 -99 -99
-99 -99 -99 -99 -99 -99 -99 -99 -99 -99 -99 000 000 000 000 -99 -99 000 000 000 000 000 000 000 000 000 -99 -99 -99 -99 -99
-99 -99 -99 -99 -99 -99 -99 -99 -99 000 -99 000 000 000 000 -99 -99 000 -99 000 000 000 000 000 -99 000 000 000 -99 -99 -99
-99 -99 -99 -99 -99 -99 -99 -99 000 000 -99 000 000 000 000 -99 -99 000 000 000 000 000 000 000 -99 -99 000 000 -99 -99 -99
-99 -99 -99 -99 -99 -99 -99 -99 000 000 -99 000 000 000 000 -99 -99 -99 000 000 000 000 000 -99 -99 000 000 -99 -99 -99 -99
-99 -99 -99 -99 -99 -99 -99 -99 000 -99 000 000 000 000 -99 -99 -99 000 000 000 000 -99 000 -99 -99 000 -99 -99 -99 -99 -99
-99 -99 -99 -99 -99 -99 -99 -99 -99 -99 000 000 000 000 -99 -99 -99 000 000 000 000 -99 -99 -99 -99 -99 -99 -99 -99 -99 -99
-99 -99 -99 -99 -99 -99 -99 -99 -99 -99 -99 000 -99 -99 -99 -99 000 000 000 -99 -99 -99 -99 -99 -99 -99 -99 -99 -99 -99 -99
-99 -99 -99 -99 -99 -99 -99 -99 -99 -99 -99 -99 -99 -99 -99 -99 -99 000 -99 -99 -99 -99 -99 -99 -99 -99 -99 -99 -99 -99 -99
